start = 1;
limit = 6;
n = 14;
m=[|-1,12,17,2,-1,16,3,-1,14,12,6,-1,8,2,
|11,-1,0,10,-1,5,-1,-1,-1,-1,-1,-1,0,9,
|4,-1,-1,7,9,-1,6,8,13,-1,7,-1,9,5,
|-1,-1,-1,-1,-1,4,9,4,0,12,4,-1,-1,8,
|-1,6,-1,-1,-1,-1,-1,-1,-1,12,-1,13,10,12,
|13,-1,16,1,-1,-1,16,-1,-1,-1,18,-1,-1,14,
|-1,-1,12,-1,-1,-1,-1,-1,12,-1,2,7,-1,-1,
|-1,1,9,-1,11,-1,-1,-1,17,0,14,9,5,-1,
|17,-1,10,-1,-1,13,10,-1,-1,7,-1,6,0,-1,
|-1,-1,9,9,5,-1,18,-1,-1,-1,13,18,16,-1,
|-1,-1,-1,12,6,15,-1,-1,-1,4,-1,-1,-1,9,
|-1,-1,-1,1,18,13,-1,-1,16,0,-1,-1,-1,3,
|-1,12,-1,9,18,6,7,-1,-1,-1,13,-1,-1,-1,
|16,-1,4,-1,16,19,19,-1,-1,18,-1,3,20,-1,
|]
;